NAME : rnd8_20.tsp
TYPE : TSP
DIMENSION : 20
EDGE_WEIGHT_TYPE : EUC_2D
NODE_COORD_SECTION
0 849 245
1 384 324
2 752 483
3 578 408
4 31 670
5 243 474
6 969 985
7 318 618
8 569 953
9 383 781
10 157 324
11 973 758
12 188 582
13 217 431
14 792 375
15 241 971
16 895 153
17 976 345
18 76 5
19 198 870
